100 8
447 889
698 764
669 108
640 122
218 577
246 56
398 827
901 450
336 665
714 671
331 245
381 325
720 642
311 244
162 719
540 653
551 176
880 412
394 398
442 467
665 815
298 388
222 154
390 349
676 131
602 674
182 165
760 496
522 147
809 462
401 135
579 675
762 483
719 492
585 137
782 390
334 772
803 162
442 199
660 184
235 748
707 590
793 384
478 880
886 470
443 221
669 308
549 183
392 358
197 58
187 171
480 180
403 191
698 166
308 871
596 157
706 152
428 385
265 825
556 252
640 370
582 204
595 707
292 380
268 776
616 665
605 710
192 30
725 258
353 744
707 700
724 317
859 407
537 729
356 303
658 740
606 297
726 636
489 783
481 503
603 743
690 246
794 242
136 827
428 900
270 751
566 221
593 722
652 779
198 822
445 865
196 826
217 703
667 732
668 293
172 717
588 269
742 865
643 247
557 458
